SAT
-47 19 -52 88 29 43 -92 -95 68 -71 -46 37 3 -7 20 13 -86 -39 17 67 64 23 -58 1 34 6 -99 -25 61 -49 -24 50 -35 9 21 -59 83 -8 -60 -72 55 32 -28 -84 97 85 100 -41 -65 -51 -2 -4 -56 -48 76 91 -11 75 -40 -45 -81 57 -14 -44 15 38 79 42 -96 -93 -12 36 78 -5 31 -16 -69 -70 73 33 -82 62 66 90 22 -26 -87 30 94 98 -18 27 10 -53 80 74 -77 63 -54 -89 0
